numOfMachines = 4;
numOfRobots = 2;
numOfJobs = 8;
maxOperations = 3;
operationsCount = [2,2,2,2,2,3,3,3];

operation = [
[<0,0,0>,<1,18,0>,<4,18,0>],
[<0,0,0>,<2,33,0>,<4,27,1>],
[<0,0,0>,<2,27,0>,<4,21,0>],
[<0,0,0>,<3,48,0>,<4,21,0>],
[<0,0,0>,<1,27,0>,<3,54,0>],
//[<0,0,0>,<2,39,0>,<3,58,0>,<4,18,0>],
[<0,0,0>,<2,39,0>,<3,57,0>,<4,18,0>],
[<0,0,0>,<1,30,0>,<2,27,0>,<3,39,0>],
[<0,0,0>,<1,33,0>,<2,27,0>,<4,24,1>]
];